# Objective value = 7353.82
I_0_0 2675
I_0_1 3466
I_0_2 2935
I_0_3 3841
I_1_0 24
I_1_1 12
I_1_2 2.4000000000000004e+01
I_1_3 1.1999999999999998e+01
I_2_0 15
I_2_1 15
I_2_2 15
I_2_3 -5.2041704279304213e-16
I_3_0 20
I_3_1 1.3877787807814457e-16
I_3_2 1.9999999999999996e+01
I_3_3 1.3877787807814457e-16
I_4_0 21
I_4_1 -5.3690807829016825e-14
I_4_2 2.1000000000000043e+01
I_4_3 -4.8299287265680908e-14
I_5_0 23
I_5_1 -1.8512968935624485e-14
I_5_2 23
I_5_3 3.1918911957973251e-16
I_6_0 32
I_6_1 0
I_6_2 32
I_6_3 -2.7755575615628914e-15
I_7_0 78
I_7_1 39
I_7_2 78
I_7_3 39
I_8_0 86
I_8_1 43
I_8_2 86
I_8_3 43
I_9_0 47
I_9_1 -5.5441762292218755e-14
I_9_2 4.7000000000000050e+01
I_9_3 0
I_10_0 102
I_10_1 51
I_10_2 102
I_10_3 51
I_11_0 55
I_11_1 0
I_11_2 55
I_11_3 -3.8919959295167463e-15
I_12_0 116
I_12_1 58
I_12_2 116
I_12_3 58
I_13_0 59
I_13_1 0
I_13_2 59
I_13_3 -4.1750501789361460e-15
I_14_0 142
I_14_1 71
I_14_2 1.4200000000000003e+02
I_14_3 71
I_15_0 72
I_15_1 0
I_15_2 72
I_15_3 -6.0021334568500770e-14
I_16_0 80
I_16_1 80
I_16_2 0
I_16_3 80
I_17_0 176
I_17_1 176
I_17_2 88
I_17_3 -7.1054273576010019e-15
I_18_0 178
I_18_1 89
I_18_2 178
I_18_3 89
I_19_0 184
I_19_1 184
I_19_2 92
I_19_3 0
I_20_0 99
I_20_1 0
I_20_2 99
I_20_3 0
q_1_0 0
q_1_1 2.3999999999999925e+01
q_1_2 -5.0949764895492122e-15
q_2_0 15
q_2_1 15
q_2_2 -5.2041704279304213e-16
q_3_0 1.3877787807814457e-16
q_3_1 40
q_3_2 3.6914915568786455e-15
q_4_0 -5.3690807829016825e-14
q_4_1 42.0000000000001
q_4_2 -9.0931851411286919e-14
q_5_0 -1.8512968935624485e-14
q_5_1 4.6000000000000014e+01
q_5_2 3.1918911957973251e-16
q_6_0 0
q_6_1 64
q_6_2 -2.7755575615628914e-15
q_7_0 0
q_7_1 78
q_7_2 1.7763568394002505e-15
q_8_0 0
q_8_1 86
q_8_2 0
q_9_0 -5.5441762292218755e-14
q_9_1 9.4000000000000114e+01
q_9_2 -4.9737991503207013e-14
q_10_0 0
q_10_1 102
q_10_2 0
q_11_0 0
q_11_1 110
q_11_2 -3.8919959295167463e-15
q_12_0 0
q_12_1 116
q_12_2 0
q_13_0 0
q_13_1 118
q_13_2 -4.1750501789361460e-15
q_14_0 0
q_14_1 142
q_14_2 -2.0206059048177849e-14
q_15_0 0
q_15_1 144
q_15_2 -6.0021334568500770e-14
q_16_0 80
q_16_1 0
q_16_2 160
q_17_0 88
q_17_1 0
q_17_2 -7.1054273576010019e-15
q_18_0 0
q_18_1 178
q_18_2 1.7763568394002505e-15
q_19_0 92
q_19_1 1.5099033134902129e-14
q_19_2 -8.8817841970012523e-16
q_20_0 0
q_20_1 198
q_20_2 0
y_0_0 1
y_0_1 1
y_0_2 1
y_1_0 0
y_1_1 1
y_1_2 -1.4152712470969986e-16
y_2_0 1
y_2_1 1
y_2_2 -3.4694469519536142e-17
y_3_0 6.9388939039072284e-18
y_3_1 9.9999999999999978e-01
y_3_2 6.9388939039072284e-18
y_4_0 -2.5567051347150869e-15
y_4_1 1.0000000000000020e+00
y_4_2 -2.2999660602705194e-15
y_5_0 -8.0491169285323849e-16
y_5_1 1
y_5_2 1.3877787807814457e-17
y_6_0 0
y_6_1 1
y_6_2 -8.6736173798840355e-17
y_7_0 0
y_7_1 1
y_7_2 1.3877787807814457e-17
y_8_0 0
y_8_1 1
y_8_2 0
y_9_0 -1.1796119636642288e-15
y_9_1 1.0000000000000011e+00
y_9_2 0
y_10_0 0
y_10_1 1
y_10_2 0
y_11_0 0
y_11_1 1
y_11_2 -7.0763562354849928e-17
y_12_0 0
y_12_1 1
y_12_2 0
y_13_0 0
y_13_1 1
y_13_2 -7.0763562354849928e-17
y_14_0 0
y_14_1 1.0000000000000002e+00
y_14_2 0
y_15_0 0
y_15_1 1
y_15_2 -8.33629646784733e-16
y_16_0 1
y_16_1 0
y_16_2 1
y_17_0 1
y_17_1 0
y_17_2 -3.8163916471489756e-17
y_18_0 0
y_18_1 1
y_18_2 0
y_19_0 1
y_19_1 0
y_19_2 0
y_20_0 0
y_20_1 1
y_20_2 0
x_0_1_0 0
x_0_1_1 0
x_0_1_2 0
x_0_2_0 0
x_0_2_1 1.0000000000000013e+00
x_0_2_2 -4.85722573273506e-17
x_0_3_0 0
x_0_3_1 0
x_0_3_2 0
x_0_4_0 0
x_0_4_1 0
x_0_4_2 0
x_0_5_0 0
x_0_5_1 0
x_0_5_2 0
x_0_6_0 0
x_0_6_1 0
x_0_6_2 0
x_0_7_0 0
x_0_7_1 0
x_0_7_2 0
x_0_8_0 0
x_0_8_1 1
x_0_8_2 0
x_0_9_0 0
x_0_9_1 -3.8510861166685117e-16
x_0_9_2 0
x_0_10_0 0
x_0_10_1 0
x_0_10_2 0
x_0_11_0 0
x_0_11_1 0
x_0_11_2 0
x_0_12_0 0
x_0_12_1 0
x_0_12_2 0
x_0_13_0 0
x_0_13_1 0
x_0_13_2 0
x_0_14_0 0
x_0_14_1 4.7184478546569153e-16
x_0_14_2 0
x_0_15_0 0
x_0_15_1 0
x_0_15_2 0
x_0_16_0 0
x_0_16_1 0
x_0_16_2 1.9999999999999998e+00
x_0_17_0 1
x_0_17_1 0
x_0_17_2 0
x_0_18_0 0
x_0_18_1 0
x_0_18_2 0
x_0_19_0 1
x_0_19_1 0
x_0_19_2 0
x_0_20_0 0
x_0_20_1 0
x_0_20_2 0
x_1_2_0 0
x_1_2_1 0
x_1_2_2 0
x_1_3_0 0
x_1_3_1 8.3266726846886741e-17
x_1_3_2 0
x_1_4_0 0
x_1_4_1 0
x_1_4_2 0
x_1_5_0 0
x_1_5_1 0
x_1_5_2 0
x_1_6_0 0
x_1_6_1 0
x_1_6_2 0
x_1_7_0 0
x_1_7_1 0
x_1_7_2 0
x_1_8_0 0
x_1_8_1 0
x_1_8_2 0
x_1_9_0 0
x_1_9_1 0
x_1_9_2 0
x_1_10_0 0
x_1_10_1 0
x_1_10_2 0
x_1_11_0 0
x_1_11_1 1.0000000000000007e+00
x_1_11_2 0
x_1_12_0 0
x_1_12_1 0
x_1_12_2 0
x_1_13_0 0
x_1_13_1 9.9999999999999989e-01
x_1_13_2 0
x_1_14_0 0
x_1_14_1 0
x_1_14_2 0
x_1_15_0 0
x_1_15_1 0
x_1_15_2 0
x_1_16_0 0
x_1_16_1 0
x_1_16_2 0
x_1_17_0 0
x_1_17_1 0
x_1_17_2 0
x_1_18_0 0
x_1_18_1 0
x_1_18_2 0
x_1_19_0 0
x_1_19_1 0
x_1_19_2 0
x_1_20_0 0
x_1_20_1 0
x_1_20_2 0
x_2_3_0 0
x_2_3_1 0
x_2_3_2 0
x_2_4_0 0
x_2_4_1 0
x_2_4_2 0
x_2_5_0 0
x_2_5_1 0
x_2_5_2 0
x_2_6_0 0
x_2_6_1 0
x_2_6_2 0
x_2_7_0 0
x_2_7_1 0
x_2_7_2 0
x_2_8_0 0
x_2_8_1 0
x_2_8_2 0
x_2_9_0 0
x_2_9_1 0
x_2_9_2 0
x_2_10_0 0
x_2_10_1 0
x_2_10_2 0
x_2_11_0 0
x_2_11_1 0
x_2_11_2 0
x_2_12_0 0
x_2_12_1 0
x_2_12_2 0
x_2_13_0 0
x_2_13_1 0
x_2_13_2 0
x_2_14_0 0
x_2_14_1 0.999999999999999
x_2_14_2 0
x_2_15_0 0
x_2_15_1 0
x_2_15_2 0
x_2_16_0 1
x_2_16_1 0
x_2_16_2 0
x_2_17_0 0
x_2_17_1 0
x_2_17_2 0
x_2_18_0 0
x_2_18_1 0
x_2_18_2 0
x_2_19_0 9.9999999999999989e-01
x_2_19_1 0
x_2_19_2 0
x_2_20_0 0
x_2_20_1 0
x_2_20_2 0
x_3_4_0 0
x_3_4_1 0
x_3_4_2 0
x_3_5_0 0
x_3_5_1 0
x_3_5_2 0
x_3_6_0 -1.2490009027033011e-16
x_3_6_1 1
x_3_6_2 0
x_3_7_0 0
x_3_7_1 -1.0408340855860843e-16
x_3_7_2 0
x_3_8_0 0
x_3_8_1 0
x_3_8_2 0
x_3_9_0 0
x_3_9_1 0
x_3_9_2 0
x_3_10_0 0
x_3_10_1 0
x_3_10_2 0
x_3_11_0 0
x_3_11_1 0.999999999999999
x_3_11_2 0
x_3_12_0 0
x_3_12_1 0
x_3_12_2 0
x_3_13_0 0
x_3_13_1 0
x_3_13_2 0
x_3_14_0 0
x_3_14_1 0
x_3_14_2 0
x_3_15_0 0
x_3_15_1 0
x_3_15_2 0
x_3_16_0 0
x_3_16_1 0
x_3_16_2 0
x_3_17_0 0
x_3_17_1 0
x_3_17_2 0
x_3_18_0 0
x_3_18_1 0
x_3_18_2 0
x_3_19_0 0
x_3_19_1 0
x_3_19_2 0
x_3_20_0 0
x_3_20_1 0
x_3_20_2 0
x_4_5_0 0
x_4_5_1 9.9999999999999978e-01
x_4_5_2 -4.1633363423443370e-17
x_4_6_0 -1.7347234759768071e-16
x_4_6_1 0
x_4_6_2 0
x_4_7_0 0
x_4_7_1 1
x_4_7_2 0
x_4_8_0 0
x_4_8_1 0
x_4_8_2 0
x_4_9_0 0
x_4_9_1 0
x_4_9_2 0
x_4_10_0 0
x_4_10_1 0
x_4_10_2 0
x_4_11_0 0
x_4_11_1 0
x_4_11_2 0
x_4_12_0 0
x_4_12_1 0
x_4_12_2 0
x_4_13_0 0
x_4_13_1 0
x_4_13_2 0
x_4_14_0 0
x_4_14_1 0
x_4_14_2 0
x_4_15_0 0
x_4_15_1 0
x_4_15_2 0
x_4_16_0 0
x_4_16_1 0
x_4_16_2 0
x_4_17_0 0
x_4_17_1 0
x_4_17_2 0
x_4_18_0 0
x_4_18_1 0
x_4_18_2 0
x_4_19_0 0
x_4_19_1 0
x_4_19_2 0
x_4_20_0 0
x_4_20_1 0
x_4_20_2 0
x_5_6_0 7.7715611723760958e-16
x_5_6_1 1.6653345369377348e-16
x_5_6_2 0
x_5_7_0 0
x_5_7_1 0
x_5_7_2 0
x_5_8_0 0
x_5_8_1 0
x_5_8_2 0
x_5_9_0 0
x_5_9_1 0
x_5_9_2 -2.7755575615628914e-17
x_5_10_0 0
x_5_10_1 0
x_5_10_2 0
x_5_11_0 0
x_5_11_1 0
x_5_11_2 0
x_5_12_0 0
x_5_12_1 0
x_5_12_2 0
x_5_13_0 0
x_5_13_1 0
x_5_13_2 0
x_5_14_0 0
x_5_14_1 0
x_5_14_2 0
x_5_15_0 0
x_5_15_1 9.9999999999999989e-01
x_5_15_2 0
x_5_16_0 0
x_5_16_1 0
x_5_16_2 0
x_5_17_0 0
x_5_17_1 0
x_5_17_2 0
x_5_18_0 0
x_5_18_1 8.3266726846886741e-17
x_5_18_2 2.7755575615628914e-17
x_5_19_0 0
x_5_19_1 0
x_5_19_2 0
x_5_20_0 0
x_5_20_1 0
x_5_20_2 0
x_6_7_0 0
x_6_7_1 1
x_6_7_2 0
x_6_8_0 0
x_6_8_1 0
x_6_8_2 0
x_6_9_0 0
x_6_9_1 0
x_6_9_2 0
x_6_10_0 0
x_6_10_1 0
x_6_10_2 0
x_6_11_0 0
x_6_11_1 0
x_6_11_2 0
x_6_12_0 0
x_6_12_1 0
x_6_12_2 0
x_6_13_0 0
x_6_13_1 0
x_6_13_2 0
x_6_14_0 0
x_6_14_1 0
x_6_14_2 0
x_6_15_0 0
x_6_15_1 0
x_6_15_2 0
x_6_16_0 0
x_6_16_1 0
x_6_16_2 0
x_6_17_0 0
x_6_17_1 0
x_6_17_2 0
x_6_18_0 0
x_6_18_1 -1.1102230246251565e-16
x_6_18_2 0
x_6_19_0 0
x_6_19_1 0
x_6_19_2 0
x_6_20_0 0
x_6_20_1 0
x_6_20_2 0
x_7_8_0 0
x_7_8_1 0
x_7_8_2 0
x_7_9_0 0
x_7_9_1 0
x_7_9_2 0
x_7_10_0 0
x_7_10_1 0
x_7_10_2 0
x_7_11_0 0
x_7_11_1 9.71445146547012e-17
x_7_11_2 0
x_7_12_0 0
x_7_12_1 0
x_7_12_2 0
x_7_13_0 0
x_7_13_1 0
x_7_13_2 0
x_7_14_0 0
x_7_14_1 0
x_7_14_2 0
x_7_15_0 0
x_7_15_1 0
x_7_15_2 0
x_7_16_0 0
x_7_16_1 0
x_7_16_2 0
x_7_17_0 0
x_7_17_1 0
x_7_17_2 0
x_7_18_0 0
x_7_18_1 0
x_7_18_2 0
x_7_19_0 0
x_7_19_1 0
x_7_19_2 0
x_7_20_0 0
x_7_20_1 0
x_7_20_2 0
x_8_9_0 0
x_8_9_1 0
x_8_9_2 0
x_8_10_0 0
x_8_10_1 0
x_8_10_2 0
x_8_11_0 0
x_8_11_1 0
x_8_11_2 0
x_8_12_0 0
x_8_12_1 1
x_8_12_2 0
x_8_13_0 0
x_8_13_1 0
x_8_13_2 0
x_8_14_0 0
x_8_14_1 0
x_8_14_2 0
x_8_15_0 0
x_8_15_1 0
x_8_15_2 0
x_8_16_0 0
x_8_16_1 0
x_8_16_2 0
x_8_17_0 0
x_8_17_1 0
x_8_17_2 0
x_8_18_0 0
x_8_18_1 0
x_8_18_2 0
x_8_19_0 0
x_8_19_1 0
x_8_19_2 0
x_8_20_0 0
x_8_20_1 0
x_8_20_2 0
x_9_10_0 0
x_9_10_1 9.9999999999999811e-01
x_9_10_2 0
x_9_11_0 0
x_9_11_1 0
x_9_11_2 0
x_9_12_0 0
x_9_12_1 0
x_9_12_2 0
x_9_13_0 0
x_9_13_1 0
x_9_13_2 0
x_9_14_0 0
x_9_14_1 0
x_9_14_2 0
x_9_15_0 0
x_9_15_1 0
x_9_15_2 0
x_9_16_0 0
x_9_16_1 0
x_9_16_2 0
x_9_17_0 0
x_9_17_1 0
x_9_17_2 0
x_9_18_0 0
x_9_18_1 1.0000000000000020e+00
x_9_18_2 3.4694469519536142e-17
x_9_19_0 0
x_9_19_1 0
x_9_19_2 0
x_9_20_0 0
x_9_20_1 0
x_9_20_2 0
x_10_11_0 0
x_10_11_1 0
x_10_11_2 0
x_10_12_0 0
x_10_12_1 0
x_10_12_2 0
x_10_13_0 0
x_10_13_1 0
x_10_13_2 0
x_10_14_0 0
x_10_14_1 1.0000000000000022e+00
x_10_14_2 0
x_10_15_0 0
x_10_15_1 0
x_10_15_2 0
x_10_16_0 0
x_10_16_1 0
x_10_16_2 0
x_10_17_0 0
x_10_17_1 0
x_10_17_2 0
x_10_18_0 0
x_10_18_1 -1.1796119636642288e-16
x_10_18_2 0
x_10_19_0 0
x_10_19_1 0
x_10_19_2 0
x_10_20_0 0
x_10_20_1 0
x_10_20_2 0
x_11_12_0 0
x_11_12_1 0
x_11_12_2 0
x_11_13_0 0
x_11_13_1 0
x_11_13_2 0
x_11_14_0 0
x_11_14_1 0
x_11_14_2 0
x_11_15_0 0
x_11_15_1 0
x_11_15_2 0
x_11_16_0 0
x_11_16_1 0
x_11_16_2 0
x_11_17_0 0
x_11_17_1 0
x_11_17_2 0
x_11_18_0 0
x_11_18_1 0
x_11_18_2 0
x_11_19_0 0
x_11_19_1 0
x_11_19_2 0
x_11_20_0 0
x_11_20_1 0
x_11_20_2 0
x_12_13_0 0
x_12_13_1 0
x_12_13_2 0
x_12_14_0 0
x_12_14_1 0
x_12_14_2 0
x_12_15_0 0
x_12_15_1 0
x_12_15_2 0
x_12_16_0 0
x_12_16_1 0
x_12_16_2 0
x_12_17_0 0
x_12_17_1 0
x_12_17_2 0
x_12_18_0 0
x_12_18_1 0
x_12_18_2 0
x_12_19_0 0
x_12_19_1 0
x_12_19_2 0
x_12_20_0 0
x_12_20_1 1
x_12_20_2 0
x_13_14_0 0
x_13_14_1 0
x_13_14_2 0
x_13_15_0 0
x_13_15_1 0
x_13_15_2 0
x_13_16_0 0
x_13_16_1 0
x_13_16_2 0
x_13_17_0 0
x_13_17_1 0
x_13_17_2 0
x_13_18_0 0
x_13_18_1 0
x_13_18_2 0
x_13_19_0 0
x_13_19_1 0
x_13_19_2 0
x_13_20_0 0
x_13_20_1 1
x_13_20_2 0
x_14_15_0 0
x_14_15_1 0
x_14_15_2 0
x_14_16_0 0
x_14_16_1 0
x_14_16_2 0
x_14_17_0 0
x_14_17_1 0
x_14_17_2 0
x_14_18_0 0
x_14_18_1 0
x_14_18_2 0
x_14_19_0 0
x_14_19_1 0
x_14_19_2 0
x_14_20_0 0
x_14_20_1 0
x_14_20_2 0
x_15_16_0 0
x_15_16_1 0
x_15_16_2 0
x_15_17_0 0
x_15_17_1 0
x_15_17_2 0
x_15_18_0 0
x_15_18_1 1.0000000000000002e+00
x_15_18_2 -1.1102230246251565e-16
x_15_19_0 0
x_15_19_1 0
x_15_19_2 0
x_15_20_0 0
x_15_20_1 0
x_15_20_2 0
x_16_17_0 1
x_16_17_1 0
x_16_17_2 -7.6327832942979512e-17
x_16_18_0 0
x_16_18_1 0
x_16_18_2 0
x_16_19_0 0
x_16_19_1 0
x_16_19_2 0
x_16_20_0 0
x_16_20_1 0
x_16_20_2 0
x_17_18_0 0
x_17_18_1 0
x_17_18_2 0
x_17_19_0 0
x_17_19_1 0
x_17_19_2 0
x_17_20_0 0
x_17_20_1 0
x_17_20_2 0
x_18_19_0 0
x_18_19_1 0
x_18_19_2 0
x_18_20_0 0
x_18_20_1 0
x_18_20_2 0
x_19_20_0 0
x_19_20_1 0
x_19_20_2 0
